(set-logic HORN)
(declare-fun array_insert_last@pre ((Array Int Int) Int Int ) Bool)
(declare-fun array_insert_last@summary ((Array Int Int) Int Int (Array Int Int) ) Bool)
(assert (forall ((.array@0 (Array Int Int))(.array!size@0 Int)(N@0 Int)(array@0 (Array Int Int))(tmp@0 Int)(array@1 (Array Int Int))(array@2 (Array Int Int))) (=> (and (array_insert_last@pre |array@0| |.array!size@0| |N@0|) (= |.array@0| |array@0|) (>= |N@0| 1) (> (select |array@0| (- |N@0| 1)) (select |array@0| |N@0|)) (= |tmp@0| (select |array@0| (- |N@0| 1))) (= |array@1| (store |array@0| (- |N@0| 1) (select |array@0| |N@0|))) (= |array@2| (store |array@1| |N@0| |tmp@0|))) (array_insert_last@pre |array@2| |.array!size@0| (- |N@0| 1)))))
(assert (forall ((N@0 Int)(array@0 (Array Int Int))) (=> (and (> |N@0| 0) (forall ((k@0 Int)(l@0 Int)) (=> (and (<= 0 |k@0|) (< |k@0| (- |N@0| 2))) (=> (and (<= (+ |k@0| 1) |l@0|) (< |l@0| (- |N@0| 1))) (<= (select |array@0| |k@0|) (select |array@0| |l@0|)))))) (array_insert_last@pre |array@0| |N@0| (- |N@0| 1)))))
(assert (forall ((N@0 Int)(array@0 (Array Int Int))(array@1 (Array Int Int))) (=> (and (array_insert_last@summary |array@0| |N@0| (- |N@0| 1) |array@1|) (array_insert_last@pre |array@0| |N@0| (- |N@0| 1)) (> |N@0| 0) (forall ((k@0 Int)(l@0 Int)) (=> (and (<= 0 |k@0|) (< |k@0| (- |N@0| 2))) (=> (and (<= (+ |k@0| 1) |l@0|) (< |l@0| (- |N@0| 1))) (<= (select |array@0| |k@0|) (select |array@0| |l@0|))))) (not (forall ((k@0 Int)(l@0 Int)) (=> (and (<= 0 |k@0|) (< |k@0| (- |N@0| 1))) (=> (and (<= (+ |k@0| 1) |l@0|) (< |l@0| |N@0|)) (<= (select |array@1| |k@0|) (select |array@1| |l@0|))))))) false)))
(assert (forall ((.array@0 (Array Int Int))(.array!size@0 Int)(N@0 Int)(array@0 (Array Int Int))) (=> (and (array_insert_last@pre |array@0| |.array!size@0| |N@0|) (= |.array@0| |array@0|) (not (>= |N@0| 1))) (array_insert_last@summary |.array@0| |.array!size@0| |N@0| |array@0|))))
(assert (forall ((.array@0 (Array Int Int))(.array!size@0 Int)(N@0 Int)(array@0 (Array Int Int))) (=> (and (array_insert_last@pre |array@0| |.array!size@0| |N@0|) (= |.array@0| |array@0|) (>= |N@0| 1) (not (> (select |array@0| (- |N@0| 1)) (select |array@0| |N@0|)))) (array_insert_last@summary |.array@0| |.array!size@0| |N@0| |array@0|))))
(assert (forall ((.array@0 (Array Int Int))(.array!size@0 Int)(N@0 Int)(array@0 (Array Int Int))(array@1 (Array Int Int))(tmp@0 Int)(array@2 (Array Int Int))(array@3 (Array Int Int))) (=> (and (array_insert_last@summary |array@3| |.array!size@0| (- |N@0| 1) |array@0|) (array_insert_last@pre |array@3| |.array!size@0| (- |N@0| 1)) (array_insert_last@pre |array@1| |.array!size@0| |N@0|) (= |.array@0| |array@1|) (>= |N@0| 1) (> (select |array@1| (- |N@0| 1)) (select |array@1| |N@0|)) (= |tmp@0| (select |array@1| (- |N@0| 1))) (= |array@2| (store |array@1| (- |N@0| 1) (select |array@1| |N@0|))) (= |array@3| (store |array@2| |N@0| |tmp@0|))) (array_insert_last@summary |.array@0| |.array!size@0| |N@0| |array@0|))))
(check-sat)